
  32    4
  10   10   10   10

   0   0   0   0   0  14 2 3 4 5 6 7 8 12 13 14 15 29 30 31 
   6  10  10  10  10   3 24 19 9 
   5  10  10  10  10   3 23 22 11 
   8  10  10  10  10   4 24 23 21 18 
  10  10  10  10  10   2 22 9 
   1  10  10  10  10   2 20 10 
   7  10  10  10  10   3 28 27 16 
  10  10  10  10  10   3 26 21 16 
   5  10  10  10  10   2 18 16 
   8  10  10  10  10   2 19 17 
   4  10  10  10  10   2 17 16 
   5  10  10  10  10   2 25 17 
   7  10  10  10  10   2 20 16 
   1  10  10  10  10   1 17 
   3  10  10  10  10   1 18 
   9  10  10  10  10   1 32
  10  10  10  10  10   1 32
   2  10  10  10  10   1 32
   4  10  10  10  10   1 32
   2  10  10  10  10   1 32
  10  10  10  10  10   1 32
   8  10  10  10  10   1 32
   6  10  10  10  10   1 32
   3  10  10  10  10   1 32
   7  10  10  10  10   1 32
  10  10  10  10  10   1 32
  10  10  10  10  10   1 32
   8  10  10  10  10   1 32
   4  10  10  10  10   1 32
   2  10  10  10  10   1 32
   2  10  10  10  10   1 32
   0   0   0   0   0   0 
